(set-logic QF_S)
(declare-fun var0 () String)
(assert (str.in.re var0 (re.++ (re.* (re.+ (str.to.re "000"))) (re.++ (re.* (re.+ (str.to.re "1"))) (re.++ (re.* (re.* (str.to.re "22"))) (re.++ (re.union (re.* (str.to.re "3")) (re.* (str.to.re "444"))) (re.++ (re.union (re.* (str.to.re "555")) (re.* (str.to.re "66"))) (re.++ (re.union (re.union (str.to.re "77") (str.to.re "888")) (re.union (str.to.re "999") (str.to.re "a"))) (re.++ (re.+ (re.+ (str.to.re "bb"))) (re.++ (re.+ (re.union (str.to.re "cc") (str.to.re "d"))) (re.++ (re.+ (re.+ (str.to.re "ee"))) (re.++ (re.+ (re.union (str.to.re "fff") (str.to.re "g"))) (re.++ (re.+ (re.+ (str.to.re "hhh"))) (re.++ (re.* (re.union (str.to.re "iii") (str.to.re "jj"))) (re.++ (re.union (re.* (str.to.re "kk")) (re.* (str.to.re "ll"))) (re.++ (re.* (re.* (str.to.re "mmm"))) (re.++ (re.+ (re.union (str.to.re "n") (str.to.re "o"))) (re.++ (re.+ (re.* (str.to.re "p"))) (re.++ (re.* (re.* (str.to.re "qq"))) (re.++ (re.* (re.union (str.to.re "rr") (str.to.re "sss"))) (re.++ (re.* (re.* (str.to.re "t"))) (re.++ (re.+ (re.* (str.to.re "uu"))) (re.++ (re.union (re.* (str.to.re "vv")) (re.* (str.to.re "w"))) (re.++ (re.+ (re.+ (str.to.re "x"))) (re.++ (re.* (re.union (str.to.re "y") (str.to.re "zz"))) (re.++ (re.+ (re.union (str.to.re "AAA") (str.to.re "BB"))) (re.++ (re.union (re.+ (str.to.re "CCC")) (re.+ (str.to.re "DD"))) (re.++ (re.+ (re.+ (str.to.re "EE"))) (re.++ (re.+ (re.+ (str.to.re "FFF"))) (re.++ (re.union (re.+ (str.to.re "G")) (re.+ (str.to.re "HH"))) (re.++ (re.union (re.union (str.to.re "III") (str.to.re "JJJ")) (re.union (str.to.re "KKK") (str.to.re "LLL"))) (re.++ (re.union (re.* (str.to.re "MM")) (re.* (str.to.re "N"))) (re.++ (re.+ (re.union (str.to.re "O") (str.to.re "P"))) (re.++ (re.+ (re.+ (str.to.re "Q"))) (re.++ (re.+ (re.+ (str.to.re "RRR"))) (re.++ (re.union (re.* (str.to.re "S")) (re.* (str.to.re "TT"))) (re.++ (re.* (re.* (str.to.re "UU"))) (re.++ (re.+ (re.* (str.to.re "VV"))) (re.++ (re.+ (re.+ (str.to.re "WWW"))) (re.++ (re.* (re.union (str.to.re "XXX") (str.to.re "YYY"))) (re.++ (re.* (re.* (str.to.re "ZZZ"))) (re.++ (re.union (re.+ (str.to.re "!")) (re.+ (str.to.re """"))) (re.++ (re.union (re.+ (str.to.re "###")) (re.+ (str.to.re "$"))) (re.++ (re.+ (re.+ (str.to.re "%%"))) (re.++ (re.* (re.union (str.to.re "&&") (str.to.re "'''"))) (re.++ (re.union (re.+ (str.to.re "((")) (re.+ (str.to.re ")"))) (re.++ (re.* (re.union (str.to.re "*") (str.to.re "++"))) (re.++ (re.union (re.+ (str.to.re ",")) (re.+ (str.to.re "-"))) (re.++ (re.+ (re.union (str.to.re ".") (str.to.re "///"))) (re.++ (re.* (re.+ (str.to.re "::"))) (re.++ (re.union (re.union (str.to.re ";;") (str.to.re "<<<")) (re.union (str.to.re "=") (str.to.re ">>>"))) (re.++ (re.+ (re.+ (str.to.re "???"))) (re.++ (re.* (re.+ (str.to.re "@@"))) (re.++ (re.+ (re.+ (str.to.re "[[["))) (re.++ (re.+ (re.union (str.to.re "\\") (str.to.re "]"))) (re.++ (re.union (re.+ (str.to.re "^^")) (re.+ (str.to.re "___"))) (re.++ (re.+ (re.* (str.to.re "```"))) (re.++ (re.union (re.+ (str.to.re "{")) (re.+ (str.to.re "|||"))) (re.++ (re.* (re.* (str.to.re "}"))) (re.++ (re.* (re.union (str.to.re "~") (str.to.re "00"))) (re.++ (re.union (re.+ (str.to.re "1")) (re.+ (str.to.re "2"))) (re.++ (re.union (re.+ (str.to.re "333")) (re.+ (str.to.re "4"))) (re.++ (re.* (re.union (str.to.re "5") (str.to.re "666"))) (re.++ (re.* (re.* (str.to.re "77"))) (re.++ (re.* (re.* (str.to.re "888"))) (re.++ (re.+ (re.union (str.to.re "9") (str.to.re "aaa"))) (re.++ (re.* (re.+ (str.to.re "bbb"))) (re.++ (re.+ (re.union (str.to.re "c") (str.to.re "dd"))) (re.++ (re.+ (re.+ (str.to.re "eee"))) (re.++ (re.+ (re.union (str.to.re "fff") (str.to.re "ggg"))) (re.++ (re.union (re.union (str.to.re "hh") (str.to.re "iii")) (re.union (str.to.re "j") (str.to.re "kkk"))) (re.++ (re.+ (re.union (str.to.re "lll") (str.to.re "mmm"))) (re.++ (re.* (re.* (str.to.re "nn"))) (re.++ (re.* (re.+ (str.to.re "o"))) (re.++ (re.* (re.* (str.to.re "ppp"))) (re.++ (re.+ (re.* (str.to.re "qq"))) (re.++ (re.+ (re.union (str.to.re "rrr") (str.to.re "s"))) (re.++ (re.+ (re.union (str.to.re "ttt") (str.to.re "u"))) (re.++ (re.+ (re.union (str.to.re "vv") (str.to.re "w"))) (re.++ (re.+ (re.union (str.to.re "xx") (str.to.re "y"))) (re.++ (re.union (re.+ (str.to.re "z")) (re.+ (str.to.re "AA"))) (re.++ (re.* (re.+ (str.to.re "B"))) (re.++ (re.+ (re.union (str.to.re "CCC") (str.to.re "DDD"))) (re.++ (re.+ (re.union (str.to.re "EE") (str.to.re "FFF"))) (re.++ (re.union (re.+ (str.to.re "G")) (re.+ (str.to.re "HHH"))) (re.++ (re.* (re.union (str.to.re "III") (str.to.re "JJJ"))) (re.++ (re.+ (re.+ (str.to.re "KK"))) (re.++ (re.* (re.union (str.to.re "LL") (str.to.re "M"))) (re.++ (re.union (re.* (str.to.re "N")) (re.* (str.to.re "OOO"))) (re.++ (re.union (re.union (str.to.re "P") (str.to.re "QQ")) (re.union (str.to.re "RR") (str.to.re "SS"))) (re.++ (re.+ (re.union (str.to.re "T") (str.to.re "UUU"))) (re.++ (re.+ (re.+ (str.to.re "V"))) (re.++ (re.union (re.+ (str.to.re "WWW")) (re.+ (str.to.re "XXX"))) (re.++ (re.* (re.+ (str.to.re "YY"))) (re.++ (re.* (re.* (str.to.re "ZZZ"))) (re.++ (re.+ (re.* (str.to.re "!!!"))) (re.++ (re.+ (re.+ (str.to.re """"""))) (re.++ (re.* (re.* (str.to.re "###"))) (re.++ (re.* (re.* (str.to.re "$$"))) (re.++ (re.+ (re.* (str.to.re "%%%"))) (re.++ (re.union (re.+ (str.to.re "&")) (re.+ (str.to.re "'"))) (re.++ (re.+ (re.+ (str.to.re "(("))) (re.++ (re.union (re.+ (str.to.re ")")) (re.+ (str.to.re "**"))) (re.++ (re.* (re.+ (str.to.re "+"))) (re.++ (re.+ (re.+ (str.to.re ",,"))) (re.++ (re.+ (re.* (str.to.re "--"))) (re.++ (re.union (re.* (str.to.re "...")) (re.* (str.to.re "/"))) (re.++ (re.* (re.* (str.to.re ":"))) (re.++ (re.* (re.union (str.to.re ";;") (str.to.re "<<<"))) (re.++ (re.* (re.+ (str.to.re "=="))) (re.++ (re.+ (re.+ (str.to.re ">>>"))) (re.++ (re.union (re.+ (str.to.re "?")) (re.+ (str.to.re "@@@"))) (re.++ (re.union (re.* (str.to.re "[[[")) (re.* (str.to.re "\\\\"))) (re.++ (re.union (re.* (str.to.re "]]]")) (re.* (str.to.re "^"))) (re.++ (re.union (re.+ (str.to.re "___")) (re.+ (str.to.re "`"))) (re.++ (re.union (re.* (str.to.re "{{{")) (re.* (str.to.re "|||"))) (re.++ (re.* (re.+ (str.to.re "}}}"))) (re.++ (re.+ (re.+ (str.to.re "~~"))) (re.++ (re.union (re.* (str.to.re "00")) (re.* (str.to.re "111"))) (re.++ (re.union (re.* (str.to.re "2")) (re.* (str.to.re "3"))) (re.++ (re.+ (re.* (str.to.re "44"))) (re.++ (re.union (re.* (str.to.re "555")) (re.* (str.to.re "666"))) (re.++ (re.+ (re.+ (str.to.re "777"))) (re.++ (re.* (re.* (str.to.re "8"))) (re.++ (re.union (re.+ (str.to.re "99")) (re.+ (str.to.re "a"))) (re.++ (re.* (re.union (str.to.re "b") (str.to.re "ccc"))) (re.++ (re.union (re.+ (str.to.re "d")) (re.+ (str.to.re "eee"))) (re.++ (re.union (re.+ (str.to.re "fff")) (re.+ (str.to.re "gg"))) (re.+ (re.* (str.to.re "hh")))))))))))))))))))))))))))))))))))))))))))))))))))))))))))))))))))))))))))))))))))))))))))))))))))))))))))))))))))))))))))))))))))
(check-sat)